(set-info :smt-lib-version 2.6)
(set-logic QF_DT)
(set-info :source |
Generated by: Federico Mora
Generated on: 2023-07-20
Generator: z3 Python bindings via UCLID5 Python API
Application: Blocksworld Automated Reasoning Problems.
Target solvers: Algaroba, cvc5, Z3, Princess
Publications: Shah, Mora and Seshia. An Eager Satisfiability Modulo Theories Solver for Algebraic Datatypes. AAAI ’24 |)
(set-info :license "https://creativecommons.org/licenses/by/4.0/")
(set-info :category "industrial")
(set-info :status unsat) 
(declare-datatypes ((Enum_A_B_C_D_E_F_G_H_I_J_K_L_M_N_O_P_Q_R_S_T_U_V_W_X 0)) (((A) (B) (C) (D) (E) (F) (G) (H) (I) (J) (K) (L) (M) (N) (O) (P) (Q) (R) (S) (T) (U) (V) (W) (X))))
(declare-datatypes ((Tower 0)) (((stack (top Enum_A_B_C_D_E_F_G_H_I_J_K_L_M_N_O_P_Q_R_S_T_U_V_W_X) (rest Tower)) (empty))))
(declare-datatypes ((Record_left_center_right 0)) (((Record_left_center_right (left Tower) (center Tower) (right Tower)))))
(declare-datatypes ((Enum_left-to-center_left-to-right_center-to-left_center-to-right_right-to-left_right-to-center 0)) (((left-to-center) (left-to-right) (center-to-left) (center-to-right) (right-to-left) (right-to-center))))
(declare-fun s () Record_left_center_right)
(declare-fun s_tmp () Record_left_center_right)
(declare-fun c () Enum_left-to-center_left-to-right_center-to-left_center-to-right_right-to-left_right-to-center)
(declare-fun c_tmp () Enum_left-to-center_left-to-right_center-to-left_center-to-right_right-to-left_right-to-center)
(declare-fun s_tmp_ () Record_left_center_right)
(declare-fun s_tmp__ () Record_left_center_right)
(declare-fun s_tmp___ () Record_left_center_right)
(declare-fun c!0 () Enum_left-to-center_left-to-right_center-to-left_center-to-right_right-to-left_right-to-center)
(declare-fun c_tmp____ () Enum_left-to-center_left-to-right_center-to-left_center-to-right_right-to-left_right-to-center)
(declare-fun s_ () Record_left_center_right)
(declare-fun c_ () Enum_left-to-center_left-to-right_center-to-left_center-to-right_right-to-left_right-to-center)
(declare-fun c!1 () Enum_left-to-center_left-to-right_center-to-left_center-to-right_right-to-left_right-to-center)
(declare-fun c__ () Enum_left-to-center_left-to-right_center-to-left_center-to-right_right-to-left_right-to-center)
(declare-fun s__ () Record_left_center_right)
(declare-fun c!2 () Enum_left-to-center_left-to-right_center-to-left_center-to-right_right-to-left_right-to-center)
(declare-fun c___ () Enum_left-to-center_left-to-right_center-to-left_center-to-right_right-to-left_right-to-center)
(declare-fun s___ () Record_left_center_right)
(declare-fun c!3 () Enum_left-to-center_left-to-right_center-to-left_center-to-right_right-to-left_right-to-center)
(declare-fun c____ () Enum_left-to-center_left-to-right_center-to-left_center-to-right_right-to-left_right-to-center)
(declare-fun s____ () Record_left_center_right)
(declare-fun c!4 () Enum_left-to-center_left-to-right_center-to-left_center-to-right_right-to-left_right-to-center)
(declare-fun c_____ () Enum_left-to-center_left-to-right_center-to-left_center-to-right_right-to-left_right-to-center)
(declare-fun s_____ () Record_left_center_right)
(declare-fun c!5 () Enum_left-to-center_left-to-right_center-to-left_center-to-right_right-to-left_right-to-center)
(declare-fun c______ () Enum_left-to-center_left-to-right_center-to-left_center-to-right_right-to-left_right-to-center)
(declare-fun s______ () Record_left_center_right)
(declare-fun c!6 () Enum_left-to-center_left-to-right_center-to-left_center-to-right_right-to-left_right-to-center)
(declare-fun c_______ () Enum_left-to-center_left-to-right_center-to-left_center-to-right_right-to-left_right-to-center)
(declare-fun s_______ () Record_left_center_right)
(assert
 (= s_tmp s))
(assert
 (= c_tmp c))
(assert
 (let ((?x36 (stack A empty)))
 (let ((?x37 (stack D ?x36)))
 (let ((?x38 (stack F ?x37)))
 (let ((?x130 (left s_tmp_)))
 (= ?x130 ?x38))))))
(assert
 (let ((?x39 (stack I empty)))
 (let ((?x133 (center s_tmp__)))
 (= ?x133 ?x39))))
(assert
 (let ((?x40 (stack B empty)))
 (let ((?x41 (stack C ?x40)))
 (let ((?x42 (stack E ?x41)))
 (let ((?x43 (stack G ?x42)))
 (let ((?x44 (stack H ?x43)))
 (let ((?x45 (stack J ?x44)))
 (let ((?x46 (stack K ?x45)))
 (let ((?x47 (stack L ?x46)))
 (let ((?x48 (stack M ?x47)))
 (let ((?x49 (stack N ?x48)))
 (let ((?x50 (stack O ?x49)))
 (let ((?x51 (stack P ?x50)))
 (let ((?x52 (stack Q ?x51)))
 (let ((?x53 (stack R ?x52)))
 (let ((?x54 (stack S ?x53)))
 (let ((?x55 (stack T ?x54)))
 (let ((?x56 (stack U ?x55)))
 (let ((?x57 (stack V ?x56)))
 (let ((?x58 (stack W ?x57)))
 (let ((?x59 (stack X ?x58)))
 (let ((?x136 (right s_tmp___)))
 (= ?x136 ?x59)))))))))))))))))))))))
(assert
 (= c_tmp____ c!0))
(assert
 (= s_ s_tmp___))
(assert
 (= c_ c_tmp____))
(assert
 (let ((?x163 (left s_tmp__)))
 (= (left s_tmp___) ?x163)))
(assert
 (let ((?x133 (center s_tmp__)))
 (= (center s_tmp___) ?x133)))
(assert
 (let ((?x167 (center s_tmp_)))
 (= ?x167 (center s_tmp))))
(assert
 (let ((?x170 (right s_tmp_)))
 (= ?x170 (right s_tmp))))
(assert
 (let ((?x130 (left s_tmp_)))
 (let ((?x163 (left s_tmp__)))
 (= ?x163 ?x130))))
(assert
 (let ((?x170 (right s_tmp_)))
 (let ((?x174 (right s_tmp__)))
 (= ?x174 ?x170))))
(assert
 (= c__ c!1))
(assert
 (let ((?x107 (left s_)))
 (let ((?x296 (left s__)))
 (let (($x335 (= ?x296 ?x107)))
 (let ((?x110 (right s_)))
 (let (($x305 ((_ is stack ) ?x110)))
 (let (($x308 (= c_ right-to-left)))
 (let (($x309 (and $x308 $x305)))
 (let ((?x112 (center s_)))
 (let (($x310 ((_ is stack ) ?x112)))
 (let (($x311 (= c_ center-to-right)))
 (let (($x312 (and $x311 $x310)))
 (let (($x313 (= c_ center-to-left)))
 (let (($x314 (and $x313 $x310)))
 (let (($x344 (ite $x314 (= ?x296 (stack (top ?x112) ?x107)) (ite $x312 $x335 (ite $x309 (= ?x296 (stack (top ?x110) ?x107)) $x335)))))
 (let (($x322 (= ?x296 (rest ?x107))))
 (let (($x315 ((_ is stack ) ?x107)))
 (let (($x316 (= c_ left-to-right)))
 (let (($x317 (and $x316 $x315)))
 (let (($x318 (= c_ left-to-center)))
 (let (($x319 (and $x318 $x315)))
 (ite $x319 $x322 (ite $x317 $x322 $x344)))))))))))))))))))))))
(assert
 (let ((?x110 (right s_)))
 (let ((?x292 (right s__)))
 (let (($x331 (= ?x292 ?x110)))
 (let (($x328 (= ?x292 (rest ?x110))))
 (let (($x305 ((_ is stack ) ?x110)))
 (let (($x306 (= c_ right-to-center)))
 (let (($x307 (and $x306 $x305)))
 (let (($x308 (= c_ right-to-left)))
 (let (($x309 (and $x308 $x305)))
 (let ((?x112 (center s_)))
 (let (($x310 ((_ is stack ) ?x112)))
 (let (($x311 (= c_ center-to-right)))
 (let (($x312 (and $x311 $x310)))
 (let (($x341 (ite $x312 (= ?x292 (stack (top ?x112) ?x110)) (ite $x309 $x328 (ite $x307 $x328 $x331)))))
 (let (($x313 (= c_ center-to-left)))
 (let (($x314 (and $x313 $x310)))
 (let ((?x107 (left s_)))
 (let (($x315 ((_ is stack ) ?x107)))
 (let (($x316 (= c_ left-to-right)))
 (let (($x317 (and $x316 $x315)))
 (let (($x318 (= c_ left-to-center)))
 (let (($x319 (and $x318 $x315)))
 (ite $x319 (= ?x292 (stack (top ?x107) ?x110)) (ite $x317 $x331 (ite $x314 $x331 $x341))))))))))))))))))))))))))
(assert
 (let ((?x112 (center s_)))
 (let ((?x289 (center s__)))
 (let (($x333 (= ?x289 ?x112)))
 (let ((?x110 (right s_)))
 (let (($x305 ((_ is stack ) ?x110)))
 (let (($x306 (= c_ right-to-center)))
 (let (($x307 (and $x306 $x305)))
 (let (($x308 (= c_ right-to-left)))
 (let (($x309 (and $x308 $x305)))
 (let (($x325 (= ?x289 (rest ?x112))))
 (let (($x310 ((_ is stack ) ?x112)))
 (let (($x311 (= c_ center-to-right)))
 (let (($x312 (and $x311 $x310)))
 (let (($x340 (ite $x312 $x325 (ite $x309 $x333 (ite $x307 (= ?x289 (stack (top ?x110) ?x112)) $x333)))))
 (let (($x313 (= c_ center-to-left)))
 (let (($x314 (and $x313 $x310)))
 (let ((?x107 (left s_)))
 (let (($x315 ((_ is stack ) ?x107)))
 (let (($x316 (= c_ left-to-right)))
 (let (($x317 (and $x316 $x315)))
 (let (($x318 (= c_ left-to-center)))
 (let (($x319 (and $x318 $x315)))
 (ite $x319 $x333 (ite $x317 (= ?x289 (stack (top ?x107) ?x112)) (ite $x314 $x325 $x340))))))))))))))))))))))))))
(assert
 (= c___ c!2))
(assert
 (let ((?x296 (left s__)))
 (let ((?x177 (left s___)))
 (let (($x463 (= ?x177 ?x296)))
 (let ((?x292 (right s__)))
 (let ((?x430 (top ?x292)))
 (let ((?x431 (stack ?x430 ?x296)))
 (let (($x457 (= ?x177 ?x431)))
 (let (($x433 ((_ is stack ) ?x292)))
 (let (($x436 (= c__ right-to-left)))
 (let (($x437 (and $x436 $x433)))
 (let ((?x289 (center s__)))
 (let (($x438 ((_ is stack ) ?x289)))
 (let (($x439 (= c__ center-to-right)))
 (let (($x440 (and $x439 $x438)))
 (let ((?x426 (top ?x289)))
 (let ((?x427 (stack ?x426 ?x296)))
 (let (($x454 (= ?x177 ?x427)))
 (let (($x441 (= c__ center-to-left)))
 (let (($x442 (and $x441 $x438)))
 (let ((?x179 (rest ?x296)))
 (let (($x450 (= ?x177 ?x179)))
 (let (($x443 ((_ is stack ) ?x296)))
 (let (($x444 (= c__ left-to-right)))
 (let (($x445 (and $x444 $x443)))
 (let (($x446 (= c__ left-to-center)))
 (let (($x447 (and $x446 $x443)))
 (ite $x447 $x450 (ite $x445 $x450 (ite $x442 $x454 (ite $x440 $x463 (ite $x437 $x457 $x463))))))))))))))))))))))))))))))))
(assert
 (let ((?x292 (right s__)))
 (let ((?x180 (right s___)))
 (let (($x459 (= ?x180 ?x292)))
 (let ((?x429 (rest ?x292)))
 (let (($x456 (= ?x180 ?x429)))
 (let (($x433 ((_ is stack ) ?x292)))
 (let (($x434 (= c__ right-to-center)))
 (let (($x435 (and $x434 $x433)))
 (let (($x436 (= c__ right-to-left)))
 (let (($x437 (and $x436 $x433)))
 (let ((?x289 (center s__)))
 (let ((?x426 (top ?x289)))
 (let ((?x428 (stack ?x426 ?x292)))
 (let (($x455 (= ?x180 ?x428)))
 (let (($x438 ((_ is stack ) ?x289)))
 (let (($x439 (= c__ center-to-right)))
 (let (($x440 (and $x439 $x438)))
 (let (($x441 (= c__ center-to-left)))
 (let (($x442 (and $x441 $x438)))
 (let ((?x296 (left s__)))
 (let (($x443 ((_ is stack ) ?x296)))
 (let (($x444 (= c__ left-to-right)))
 (let (($x445 (and $x444 $x443)))
 (let (($x476 (ite $x445 $x459 (ite $x442 $x459 (ite $x440 $x455 (ite $x437 $x456 (ite $x435 $x456 $x459)))))))
 (let ((?x287 (top ?x296)))
 (let ((?x422 (stack ?x287 ?x292)))
 (let (($x451 (= ?x180 ?x422)))
 (let (($x446 (= c__ left-to-center)))
 (let (($x447 (and $x446 $x443)))
 (ite $x447 $x451 $x476)))))))))))))))))))))))))))))))
(assert
 (let ((?x289 (center s__)))
 (let ((?x423 (center s___)))
 (let (($x461 (= ?x423 ?x289)))
 (let ((?x292 (right s__)))
 (let ((?x430 (top ?x292)))
 (let ((?x432 (stack ?x430 ?x289)))
 (let (($x458 (= ?x423 ?x432)))
 (let (($x433 ((_ is stack ) ?x292)))
 (let (($x434 (= c__ right-to-center)))
 (let (($x435 (and $x434 $x433)))
 (let (($x436 (= c__ right-to-left)))
 (let (($x437 (and $x436 $x433)))
 (let ((?x425 (rest ?x289)))
 (let (($x453 (= ?x423 ?x425)))
 (let (($x438 ((_ is stack ) ?x289)))
 (let (($x439 (= c__ center-to-right)))
 (let (($x440 (and $x439 $x438)))
 (let (($x441 (= c__ center-to-left)))
 (let (($x442 (and $x441 $x438)))
 (let ((?x296 (left s__)))
 (let ((?x287 (top ?x296)))
 (let ((?x424 (stack ?x287 ?x289)))
 (let (($x452 (= ?x423 ?x424)))
 (let (($x443 ((_ is stack ) ?x296)))
 (let (($x444 (= c__ left-to-right)))
 (let (($x445 (and $x444 $x443)))
 (let (($x475 (ite $x445 $x452 (ite $x442 $x453 (ite $x440 $x453 (ite $x437 $x461 (ite $x435 $x458 $x461)))))))
 (let (($x446 (= c__ left-to-center)))
 (let (($x447 (and $x446 $x443)))
 (ite $x447 $x461 $x475)))))))))))))))))))))))))))))))
(assert
 (= c____ c!3))
(assert
 (let ((?x177 (left s___)))
 (let ((?x394 (left s____)))
 (let (($x602 (= ?x394 ?x177)))
 (let ((?x180 (right s___)))
 (let ((?x569 (top ?x180)))
 (let ((?x570 (stack ?x569 ?x177)))
 (let (($x596 (= ?x394 ?x570)))
 (let (($x572 ((_ is stack ) ?x180)))
 (let (($x575 (= c___ right-to-left)))
 (let (($x576 (and $x575 $x572)))
 (let ((?x423 (center s___)))
 (let (($x577 ((_ is stack ) ?x423)))
 (let (($x578 (= c___ center-to-right)))
 (let (($x579 (and $x578 $x577)))
 (let ((?x565 (top ?x423)))
 (let ((?x566 (stack ?x565 ?x177)))
 (let (($x593 (= ?x394 ?x566)))
 (let (($x580 (= c___ center-to-left)))
 (let (($x581 (and $x580 $x577)))
 (let ((?x395 (rest ?x177)))
 (let (($x589 (= ?x394 ?x395)))
 (let (($x582 ((_ is stack ) ?x177)))
 (let (($x583 (= c___ left-to-right)))
 (let (($x584 (and $x583 $x582)))
 (let (($x585 (= c___ left-to-center)))
 (let (($x586 (and $x585 $x582)))
 (ite $x586 $x589 (ite $x584 $x589 (ite $x581 $x593 (ite $x579 $x602 (ite $x576 $x596 $x602))))))))))))))))))))))))))))))))
(assert
 (let ((?x180 (right s___)))
 (let ((?x421 (right s____)))
 (let (($x598 (= ?x421 ?x180)))
 (let ((?x568 (rest ?x180)))
 (let (($x595 (= ?x421 ?x568)))
 (let (($x572 ((_ is stack ) ?x180)))
 (let (($x573 (= c___ right-to-center)))
 (let (($x574 (and $x573 $x572)))
 (let (($x575 (= c___ right-to-left)))
 (let (($x576 (and $x575 $x572)))
 (let ((?x423 (center s___)))
 (let ((?x565 (top ?x423)))
 (let ((?x567 (stack ?x565 ?x180)))
 (let (($x594 (= ?x421 ?x567)))
 (let (($x577 ((_ is stack ) ?x423)))
 (let (($x578 (= c___ center-to-right)))
 (let (($x579 (and $x578 $x577)))
 (let (($x580 (= c___ center-to-left)))
 (let (($x581 (and $x580 $x577)))
 (let ((?x177 (left s___)))
 (let (($x582 ((_ is stack ) ?x177)))
 (let (($x583 (= c___ left-to-right)))
 (let (($x584 (and $x583 $x582)))
 (let (($x615 (ite $x584 $x598 (ite $x581 $x598 (ite $x579 $x594 (ite $x576 $x595 (ite $x574 $x595 $x598)))))))
 (let ((?x560 (top ?x177)))
 (let ((?x561 (stack ?x560 ?x180)))
 (let (($x590 (= ?x421 ?x561)))
 (let (($x585 (= c___ left-to-center)))
 (let (($x586 (and $x585 $x582)))
 (ite $x586 $x590 $x615)))))))))))))))))))))))))))))))
(assert
 (let ((?x423 (center s___)))
 (let ((?x562 (center s____)))
 (let (($x600 (= ?x562 ?x423)))
 (let ((?x180 (right s___)))
 (let ((?x569 (top ?x180)))
 (let ((?x571 (stack ?x569 ?x423)))
 (let (($x597 (= ?x562 ?x571)))
 (let (($x572 ((_ is stack ) ?x180)))
 (let (($x573 (= c___ right-to-center)))
 (let (($x574 (and $x573 $x572)))
 (let (($x575 (= c___ right-to-left)))
 (let (($x576 (and $x575 $x572)))
 (let ((?x564 (rest ?x423)))
 (let (($x592 (= ?x562 ?x564)))
 (let (($x577 ((_ is stack ) ?x423)))
 (let (($x578 (= c___ center-to-right)))
 (let (($x579 (and $x578 $x577)))
 (let (($x580 (= c___ center-to-left)))
 (let (($x581 (and $x580 $x577)))
 (let ((?x177 (left s___)))
 (let ((?x560 (top ?x177)))
 (let ((?x563 (stack ?x560 ?x423)))
 (let (($x591 (= ?x562 ?x563)))
 (let (($x582 ((_ is stack ) ?x177)))
 (let (($x583 (= c___ left-to-right)))
 (let (($x584 (and $x583 $x582)))
 (let (($x614 (ite $x584 $x591 (ite $x581 $x592 (ite $x579 $x592 (ite $x576 $x600 (ite $x574 $x597 $x600)))))))
 (let (($x585 (= c___ left-to-center)))
 (let (($x586 (and $x585 $x582)))
 (ite $x586 $x600 $x614)))))))))))))))))))))))))))))))
(assert
 (= c_____ c!4))
(assert
 (let ((?x394 (left s____)))
 (let ((?x479 (left s_____)))
 (let (($x740 (= ?x479 ?x394)))
 (let ((?x421 (right s____)))
 (let ((?x707 (top ?x421)))
 (let ((?x708 (stack ?x707 ?x394)))
 (let (($x734 (= ?x479 ?x708)))
 (let (($x710 ((_ is stack ) ?x421)))
 (let (($x713 (= c____ right-to-left)))
 (let (($x714 (and $x713 $x710)))
 (let ((?x562 (center s____)))
 (let (($x715 ((_ is stack ) ?x562)))
 (let (($x716 (= c____ center-to-right)))
 (let (($x717 (and $x716 $x715)))
 (let ((?x703 (top ?x562)))
 (let ((?x704 (stack ?x703 ?x394)))
 (let (($x731 (= ?x479 ?x704)))
 (let (($x718 (= c____ center-to-left)))
 (let (($x719 (and $x718 $x715)))
 (let ((?x512 (rest ?x394)))
 (let (($x727 (= ?x479 ?x512)))
 (let (($x720 ((_ is stack ) ?x394)))
 (let (($x721 (= c____ left-to-right)))
 (let (($x722 (and $x721 $x720)))
 (let (($x723 (= c____ left-to-center)))
 (let (($x724 (and $x723 $x720)))
 (ite $x724 $x727 (ite $x722 $x727 (ite $x719 $x731 (ite $x717 $x740 (ite $x714 $x734 $x740))))))))))))))))))))))))))))))))
(assert
 (let ((?x421 (right s____)))
 (let ((?x513 (right s_____)))
 (let (($x736 (= ?x513 ?x421)))
 (let ((?x706 (rest ?x421)))
 (let (($x733 (= ?x513 ?x706)))
 (let (($x710 ((_ is stack ) ?x421)))
 (let (($x711 (= c____ right-to-center)))
 (let (($x712 (and $x711 $x710)))
 (let (($x713 (= c____ right-to-left)))
 (let (($x714 (and $x713 $x710)))
 (let ((?x562 (center s____)))
 (let ((?x703 (top ?x562)))
 (let ((?x705 (stack ?x703 ?x421)))
 (let (($x732 (= ?x513 ?x705)))
 (let (($x715 ((_ is stack ) ?x562)))
 (let (($x716 (= c____ center-to-right)))
 (let (($x717 (and $x716 $x715)))
 (let (($x718 (= c____ center-to-left)))
 (let (($x719 (and $x718 $x715)))
 (let ((?x394 (left s____)))
 (let (($x720 ((_ is stack ) ?x394)))
 (let (($x721 (= c____ left-to-right)))
 (let (($x722 (and $x721 $x720)))
 (let (($x753 (ite $x722 $x736 (ite $x719 $x736 (ite $x717 $x732 (ite $x714 $x733 (ite $x712 $x733 $x736)))))))
 (let ((?x559 (top ?x394)))
 (let ((?x699 (stack ?x559 ?x421)))
 (let (($x728 (= ?x513 ?x699)))
 (let (($x723 (= c____ left-to-center)))
 (let (($x724 (and $x723 $x720)))
 (ite $x724 $x728 $x753)))))))))))))))))))))))))))))))
(assert
 (let ((?x562 (center s____)))
 (let ((?x700 (center s_____)))
 (let (($x738 (= ?x700 ?x562)))
 (let ((?x421 (right s____)))
 (let ((?x707 (top ?x421)))
 (let ((?x709 (stack ?x707 ?x562)))
 (let (($x735 (= ?x700 ?x709)))
 (let (($x710 ((_ is stack ) ?x421)))
 (let (($x711 (= c____ right-to-center)))
 (let (($x712 (and $x711 $x710)))
 (let (($x713 (= c____ right-to-left)))
 (let (($x714 (and $x713 $x710)))
 (let ((?x702 (rest ?x562)))
 (let (($x730 (= ?x700 ?x702)))
 (let (($x715 ((_ is stack ) ?x562)))
 (let (($x716 (= c____ center-to-right)))
 (let (($x717 (and $x716 $x715)))
 (let (($x718 (= c____ center-to-left)))
 (let (($x719 (and $x718 $x715)))
 (let ((?x394 (left s____)))
 (let ((?x559 (top ?x394)))
 (let ((?x701 (stack ?x559 ?x562)))
 (let (($x729 (= ?x700 ?x701)))
 (let (($x720 ((_ is stack ) ?x394)))
 (let (($x721 (= c____ left-to-right)))
 (let (($x722 (and $x721 $x720)))
 (let (($x752 (ite $x722 $x729 (ite $x719 $x730 (ite $x717 $x730 (ite $x714 $x738 (ite $x712 $x735 $x738)))))))
 (let (($x723 (= c____ left-to-center)))
 (let (($x724 (and $x723 $x720)))
 (ite $x724 $x738 $x752)))))))))))))))))))))))))))))))
(assert
 (= c______ c!5))
(assert
 (let ((?x479 (left s_____)))
 (let ((?x618 (left s______)))
 (let (($x878 (= ?x618 ?x479)))
 (let ((?x513 (right s_____)))
 (let ((?x845 (top ?x513)))
 (let ((?x846 (stack ?x845 ?x479)))
 (let (($x872 (= ?x618 ?x846)))
 (let (($x848 ((_ is stack ) ?x513)))
 (let (($x851 (= c_____ right-to-left)))
 (let (($x852 (and $x851 $x848)))
 (let ((?x700 (center s_____)))
 (let (($x853 ((_ is stack ) ?x700)))
 (let (($x854 (= c_____ center-to-right)))
 (let (($x855 (and $x854 $x853)))
 (let ((?x841 (top ?x700)))
 (let ((?x842 (stack ?x841 ?x479)))
 (let (($x869 (= ?x618 ?x842)))
 (let (($x856 (= c_____ center-to-left)))
 (let (($x857 (and $x856 $x853)))
 (let ((?x651 (rest ?x479)))
 (let (($x865 (= ?x618 ?x651)))
 (let (($x858 ((_ is stack ) ?x479)))
 (let (($x859 (= c_____ left-to-right)))
 (let (($x860 (and $x859 $x858)))
 (let (($x861 (= c_____ left-to-center)))
 (let (($x862 (and $x861 $x858)))
 (ite $x862 $x865 (ite $x860 $x865 (ite $x857 $x869 (ite $x855 $x878 (ite $x852 $x872 $x878))))))))))))))))))))))))))))))))
(assert
 (let ((?x513 (right s_____)))
 (let ((?x652 (right s______)))
 (let (($x874 (= ?x652 ?x513)))
 (let ((?x844 (rest ?x513)))
 (let (($x871 (= ?x652 ?x844)))
 (let (($x848 ((_ is stack ) ?x513)))
 (let (($x849 (= c_____ right-to-center)))
 (let (($x850 (and $x849 $x848)))
 (let (($x851 (= c_____ right-to-left)))
 (let (($x852 (and $x851 $x848)))
 (let ((?x700 (center s_____)))
 (let ((?x841 (top ?x700)))
 (let ((?x843 (stack ?x841 ?x513)))
 (let (($x870 (= ?x652 ?x843)))
 (let (($x853 ((_ is stack ) ?x700)))
 (let (($x854 (= c_____ center-to-right)))
 (let (($x855 (and $x854 $x853)))
 (let (($x856 (= c_____ center-to-left)))
 (let (($x857 (and $x856 $x853)))
 (let ((?x479 (left s_____)))
 (let (($x858 ((_ is stack ) ?x479)))
 (let (($x859 (= c_____ left-to-right)))
 (let (($x860 (and $x859 $x858)))
 (let (($x891 (ite $x860 $x874 (ite $x857 $x874 (ite $x855 $x870 (ite $x852 $x871 (ite $x850 $x871 $x874)))))))
 (let ((?x698 (top ?x479)))
 (let ((?x837 (stack ?x698 ?x513)))
 (let (($x866 (= ?x652 ?x837)))
 (let (($x861 (= c_____ left-to-center)))
 (let (($x862 (and $x861 $x858)))
 (ite $x862 $x866 $x891)))))))))))))))))))))))))))))))
(assert
 (let ((?x700 (center s_____)))
 (let ((?x838 (center s______)))
 (let (($x876 (= ?x838 ?x700)))
 (let ((?x513 (right s_____)))
 (let ((?x845 (top ?x513)))
 (let ((?x847 (stack ?x845 ?x700)))
 (let (($x873 (= ?x838 ?x847)))
 (let (($x848 ((_ is stack ) ?x513)))
 (let (($x849 (= c_____ right-to-center)))
 (let (($x850 (and $x849 $x848)))
 (let (($x851 (= c_____ right-to-left)))
 (let (($x852 (and $x851 $x848)))
 (let ((?x840 (rest ?x700)))
 (let (($x868 (= ?x838 ?x840)))
 (let (($x853 ((_ is stack ) ?x700)))
 (let (($x854 (= c_____ center-to-right)))
 (let (($x855 (and $x854 $x853)))
 (let (($x856 (= c_____ center-to-left)))
 (let (($x857 (and $x856 $x853)))
 (let ((?x479 (left s_____)))
 (let ((?x698 (top ?x479)))
 (let ((?x839 (stack ?x698 ?x700)))
 (let (($x867 (= ?x838 ?x839)))
 (let (($x858 ((_ is stack ) ?x479)))
 (let (($x859 (= c_____ left-to-right)))
 (let (($x860 (and $x859 $x858)))
 (let (($x890 (ite $x860 $x867 (ite $x857 $x868 (ite $x855 $x868 (ite $x852 $x876 (ite $x850 $x873 $x876)))))))
 (let (($x861 (= c_____ left-to-center)))
 (let (($x862 (and $x861 $x858)))
 (ite $x862 $x876 $x890)))))))))))))))))))))))))))))))
(assert
 (= c_______ c!6))
(assert
 (let ((?x618 (left s______)))
 (let ((?x756 (left s_______)))
 (let (($x1016 (= ?x756 ?x618)))
 (let ((?x652 (right s______)))
 (let ((?x983 (top ?x652)))
 (let ((?x984 (stack ?x983 ?x618)))
 (let (($x1010 (= ?x756 ?x984)))
 (let (($x986 ((_ is stack ) ?x652)))
 (let (($x989 (= c______ right-to-left)))
 (let (($x990 (and $x989 $x986)))
 (let ((?x838 (center s______)))
 (let (($x991 ((_ is stack ) ?x838)))
 (let (($x992 (= c______ center-to-right)))
 (let (($x993 (and $x992 $x991)))
 (let ((?x979 (top ?x838)))
 (let ((?x980 (stack ?x979 ?x618)))
 (let (($x1007 (= ?x756 ?x980)))
 (let (($x994 (= c______ center-to-left)))
 (let (($x995 (and $x994 $x991)))
 (let ((?x789 (rest ?x618)))
 (let (($x1003 (= ?x756 ?x789)))
 (let (($x996 ((_ is stack ) ?x618)))
 (let (($x997 (= c______ left-to-right)))
 (let (($x998 (and $x997 $x996)))
 (let (($x999 (= c______ left-to-center)))
 (let (($x1000 (and $x999 $x996)))
 (ite $x1000 $x1003 (ite $x998 $x1003 (ite $x995 $x1007 (ite $x993 $x1016 (ite $x990 $x1010 $x1016))))))))))))))))))))))))))))))))
(assert
 (let ((?x652 (right s______)))
 (let ((?x790 (right s_______)))
 (let (($x1012 (= ?x790 ?x652)))
 (let ((?x982 (rest ?x652)))
 (let (($x1009 (= ?x790 ?x982)))
 (let (($x986 ((_ is stack ) ?x652)))
 (let (($x987 (= c______ right-to-center)))
 (let (($x988 (and $x987 $x986)))
 (let (($x989 (= c______ right-to-left)))
 (let (($x990 (and $x989 $x986)))
 (let ((?x838 (center s______)))
 (let ((?x979 (top ?x838)))
 (let ((?x981 (stack ?x979 ?x652)))
 (let (($x1008 (= ?x790 ?x981)))
 (let (($x991 ((_ is stack ) ?x838)))
 (let (($x992 (= c______ center-to-right)))
 (let (($x993 (and $x992 $x991)))
 (let (($x994 (= c______ center-to-left)))
 (let (($x995 (and $x994 $x991)))
 (let ((?x618 (left s______)))
 (let (($x996 ((_ is stack ) ?x618)))
 (let (($x997 (= c______ left-to-right)))
 (let (($x998 (and $x997 $x996)))
 (let (($x1029 (ite $x998 $x1012 (ite $x995 $x1012 (ite $x993 $x1008 (ite $x990 $x1009 (ite $x988 $x1009 $x1012)))))))
 (let ((?x836 (top ?x618)))
 (let ((?x975 (stack ?x836 ?x652)))
 (let (($x1004 (= ?x790 ?x975)))
 (let (($x999 (= c______ left-to-center)))
 (let (($x1000 (and $x999 $x996)))
 (ite $x1000 $x1004 $x1029)))))))))))))))))))))))))))))))
(assert
 (let ((?x838 (center s______)))
 (let ((?x976 (center s_______)))
 (let (($x1014 (= ?x976 ?x838)))
 (let ((?x652 (right s______)))
 (let ((?x983 (top ?x652)))
 (let ((?x985 (stack ?x983 ?x838)))
 (let (($x1011 (= ?x976 ?x985)))
 (let (($x986 ((_ is stack ) ?x652)))
 (let (($x987 (= c______ right-to-center)))
 (let (($x988 (and $x987 $x986)))
 (let (($x989 (= c______ right-to-left)))
 (let (($x990 (and $x989 $x986)))
 (let ((?x978 (rest ?x838)))
 (let (($x1006 (= ?x976 ?x978)))
 (let (($x991 ((_ is stack ) ?x838)))
 (let (($x992 (= c______ center-to-right)))
 (let (($x993 (and $x992 $x991)))
 (let (($x994 (= c______ center-to-left)))
 (let (($x995 (and $x994 $x991)))
 (let ((?x618 (left s______)))
 (let ((?x836 (top ?x618)))
 (let ((?x977 (stack ?x836 ?x838)))
 (let (($x1005 (= ?x976 ?x977)))
 (let (($x996 ((_ is stack ) ?x618)))
 (let (($x997 (= c______ left-to-right)))
 (let (($x998 (and $x997 $x996)))
 (let (($x1028 (ite $x998 $x1005 (ite $x995 $x1006 (ite $x993 $x1006 (ite $x990 $x1014 (ite $x988 $x1011 $x1014)))))))
 (let (($x999 (= c______ left-to-center)))
 (let (($x1000 (and $x999 $x996)))
 (ite $x1000 $x1014 $x1028)))))))))))))))))))))))))))))))
(assert
 (let ((?x83 (stack F empty)))
 (let ((?x790 (right s_______)))
 (let (($x1032 (= ?x790 ?x83)))
 (let ((?x976 (center s_______)))
 (let (($x1063 (= ?x976 empty)))
 (let ((?x65 (stack R (stack B (stack I (stack N (stack P (stack K empty))))))))
 (let ((?x71 (stack D (stack H (stack C (stack G (stack E (stack V ?x65))))))))
 (let ((?x77 (stack X (stack L (stack U (stack M (stack O (stack J ?x71))))))))
 (let ((?x82 (stack Q (stack S (stack W (stack A (stack T ?x77)))))))
 (let ((?x756 (left s_______)))
 (let (($x1064 (= ?x756 ?x82)))
 (let (($x1066 (not (and $x1064 $x1063 $x1032))))
 (not $x1066))))))))))))))
(check-sat)
(exit)
